817,673
1028,229
436,-75
575,460
681,616
893,618
847,-107
364,-30
899,248
552,805
667,494
601,446
639,672
738,388
620,21
921,528
681,436
814,338
792,64
947,213
542,-21
765,322
1041,406
628,379
361,243
366,177
838,-79
956,131
317,142
448,173
655,419
727,264
755,178
977,702
267,341
830,112
625,761
804,575
1184,327
